90 362791
42 38 14 33 44 69 74 83 54 63 10 76 67 45 52 66 81 56 70 62 19 26 20 59 71 55 30 41 50 35 53 24 27 87 40 21 32 72 18 90 80 12 5 46 57 28 15 34 73 85 16 11 60 86 39 8 36 61 79 58 1 2 3 9 77 75 29 22 64 89 47 13 49 88 82 17 78 23 7 68 4 43 51 48 31 25 6 37 65 84 
